problem_generation/data/GISP/train/er_n=65_m=1277_p=0.60_SET2_setparam=100.00_alpha=0.50_819.lp
maximize
OBJ:100x0 + 100x1 + 100x2 + 100x3 + 100x4 + 100x5 + 100x6 + 100x7 + 100x8 + 100x9 + 100x10 + 100x11 + 100x12 + 100x13 + 100x14 + 100x15 + 100x16 + 100x17 + 100x18 + 100x19 + 100x20 + 100x21 + 100x22 + 100x23 + 100x24 + 100x25 + 100x26 + 100x27 + 100x28 + 100x29 + 100x30 + 100x31 + 100x32 + 100x33 + 100x34 + 100x35 + 100x36 + 100x37 + 100x38 + 100x39 + 100x40 + 100x41 + 100x42 + 100x43 + 100x44 + 100x45 + 100x46 + 100x47 + 100x48 + 100x49 + 100x50 + 100x51 + 100x52 + 100x53 + 100x54 + 100x55 + 100x56 + 100x57 + 100x58 + 100x59 + 100x60 + 100x61 + 100x62 + 100x63 + 100x64 - y36_53 - y47_53 - y15_30 - y26_30 - y17_58 - y28_58 - y18_35 - y18_44 - y9_63 - y48_54 - y21_37 - y6_48 - y40_50 - y10_36 - y25_34 - y10_45 - y44_47 - y2_41 - y44_56 - y51_64 - y25_61 - y14_33 - y22_46 - y14_51 - y36_48 - y47_48 - y55_61 - y7_21 - y17_53 - y18_30 - y48_49 - y21_32 - y29_54 - y29_63 - y33_42 - y2_45 - y3_10 - y3_19 - y14_19 - y43_55 - y32_64 - y43_64 - y35_60 - y3_37 - y16_56 - y7_16 - y47_52 - y5_46 - y9_44 - y17_57 - y6_29 - y6_38 - y21_36 - y40_49 - y10_17 - y62_64 - y54_60 - y25_33 - y3_5 - y43_50 - y13_46 - y24_55 - y16_51 - y36_38 - y28_43 - y9_39 - y5_50 - y6_15 - y17_52 - y17_61 - y28_61 - y50_58 - y6_33 - y29_35 - y6_42 - y29_44 - y10_12 - y2_17 - y31_53 - y10_30 - y54_55 - y13_32 - y3_9 - y14_18 - y1_48 - y24_59 - y35_59 - y17_20 - y36_42 - y5_45 - y17_47 - y6_19 - y50_53 - y5_63 - y9_61 - y21_26 - y27_60 - y21_35 - y20_39 - y39_52 - y2_12 - y20_48 - y39_61 - y12_44 - y2_21 - y13_27 - y24_27 - y3_4 - y24_36 - y16_32 - y1_43 - y13_54 - y24_54 - y24_63 - y17_24 - y17_42 - y28_42 - y9_38 - y6_23 - y42_44 - y58_61 - y50_57 - y6_32 - y8_51 - y8_60 - y30_60 - y42_62 - y39_47 - y2_7 - y20_52 - y4_44 - y23_57 - y4_53 - y43_44 - y16_27 - y1_38 - y13_40 - y1_47 - y13_49 - y24_49 - y1_56 - y35_58 - y16_54 - y38_51 - y49_51 - y5_26 - y38_60 - y17_37 - y9_33 - y5_44 - y27_41 - y50_61 - y42_57 - y11_60 - y20_38 - y39_51 - y12_34 - y2_11 - y20_47 - y39_60 - y12_43 - y23_61 - y4_57 - y16_22 - y32_39 - y24_35 - y24_44 - y1_51 - y38_46 - y9_19 - y26_53 - y49_55 - y9_28 - y38_64 - y8_32 - y27_45 - y50_56 - y8_50 - y19_50 - y27_63 - y0_46 - y11_46 - y8_59 - y30_50 - y30_59 - y31_33 - y0_64 - y23_29 - y12_38 - y23_38 - y31_51 - y4_34 - y1_10 - y12_56 - y53_57 - y4_52 - y16_17 - y1_28 - y22_60 - y37_58 - y16_35 - y1_46 - y5_7 - y38_41 - y46_54 - y5_25 - y26_57 - y7_62 - y8_27 - y30_36 - y27_49 - y0_32 - y11_32 - y19_45 - y42_47 - y50_51 - y0_41 - y19_54 - y20_28 - y60_64 - y0_59 - y11_59 - y23_24 - y31_37 - y52_60 - y12_42 - y4_47 - y24_25 - y53_61 - y22_55 - y45_57 - y1_32 - y3_51 - y56_57 - y14_60 - y5_11 - y15_43 - y26_43 - y46_58 - y7_39 - y57_58 - y15_52 - y18_48 - y15_61 - y8_22 - y0_18 - y30_40 - y11_36 - y30_58 - y4_6 - y0_54 - y11_54 - y20_32 - y31_32 - y33_51 - y52_64 - y33_60 - y23_37 - y34_43 - y1_18 - y53_56 - y3_46 - y15_29 - y26_29 - y5_6 - y7_34 - y18_34 - y7_43 - y18_43 - y15_56 - y27_30 - y0_13 - y18_61 - y48_62 - y27_39 - y8_44 - y19_44 - y21_63 - y30_44 - y11_49 - y12_14 - y60_63 - y33_46 - y52_59 - y25_51 - y4_28 - y10_62 - y2_58 - y25_60 - y1_13 - y3_32 - y3_41 - y37_43 - y22_54 - y3_50 - y14_50 - y37_61 - y18_29 - y26_42 - y18_47 - y0_8 - y11_17 - y8_30 - y0_26 - y29_62 - y52_54 - y25_37 - y10_48 - y33_50 - y44_50 - y10_57 - y33_59 - y44_59 - y3_27 - y14_27 - y22_40 - y22_58 - y59_62 - y26_46 - y18_42 - y0_3 - y8_16 - y48_52 - y11_12 - y40_48 - y48_61 - y10_34 - y44_45 - y41_58 - y2_39 - y25_41 - y2_48 - y22_26 - y3_22 - y22_35 - y34_37 - y22_44 - y36_46 - y15_23 - y36_55 - y47_55 - y28_60 - y18_37 - y48_56 - y21_39 - y6_50 - y11_16 - y29_61 - y40_61 - y21_57 - y41_44 - y10_38 - y33_40 - y2_34 - y33_49 - y51_57 - y2_61 - y43_62 - y22_39 - y15_18 - y47_50 - y47_59 - y5_62 - y17_64 - y9_60 - y0_2 - y6_45 - y29_47 - y6_54 - y21_52 - y33_35 - y43_48 - y14_21 - y14_30 - y55_58 - y47_54 - y9_37 - y2_6 - y10_19 - y10_28 - y2_24 - y20_60 - y31_60 - y25_35 - y32_34 - y2_42 - y3_7 - y32_43 - y24_39 - y35_57 - y1_64 - y16_62 - y36_40 - y9_23 - y5_34 - y28_36 - y47_49 - y5_43 - y36_58 - y17_54 - y10_14 - y39_50 - y20_46 - y39_59 - y2_19 - y20_55 - y10_32 - y2_28 - y12_60 - y2_37 - y13_34 - y24_34 - y43_47 - y43_56 - y13_52 - y5_29 - y5_38 - y5_47 - y6_12 - y5_56 - y50_55 - y50_64 - y6_39 - y8_58 - y0_63 - y20_41 - y10_18 - y2_23 - y13_20 - y32_33 - y12_64 - y1_27 - y24_29 - y1_36 - y13_38 - y1_45 - y13_47 - y24_47 - y35_47 - y13_56 - y5_15 - y9_13 - y17_26 - y36_39 - y9_22 - y28_35 - y5_42 - y28_44 - y9_40 - y5_51 - y27_48 - y58_63 - y8_53 - y19_53 - y42_64 - y0_58 - y12_32 - y4_37 - y23_50 - y20_63 - y4_46 - y1_22 - y32_37 - y16_20 - y1_31 - y24_42 - y1_49 - y35_51 - y16_47 - y1_58 - y38_44 - y38_53 - y17_30 - y9_26 - y26_60 - y49_62 - y27_34 - y27_43 - y8_39 - y50_54 - y19_48 - y30_48 - y27_61 - y0_44 - y11_44 - y19_57 - y42_50 - y11_53 - y20_31 - y39_44 - y23_27 - y31_40 - y4_23 - y12_36 - y31_49 - y1_8 - y31_58 - y4_41 - y13_19 - y53_55 - y13_28 - y4_59 - y16_24 - y1_35 - y46_52 - y9_12 - y15_46 - y46_61 - y15_55 - y26_55 - y49_57 - y7_51 - y27_29 - y7_60 - y8_25 - y19_34 - y8_43 - y19_43 - y27_56 - y8_52 - y19_52 - y23_31 - y4_27 - y1_3 - y13_14 - y34_46 - y45_46 - y1_21 - y16_19 - y15_41 - y5_18 - y15_50 - y49_52 - y18_46 - y26_59 - y49_61 - y7_55 - y8_38 - y30_38 - y0_34 - y11_34 - y19_47 - y42_49 - y0_43 - y19_56 - y12_17 - y41_53 - y20_30 - y4_13 - y11_61 - y52_53 - y52_62 - y31_39 - y33_58 - y23_35 - y34_41 - y53_54 - y22_48 - y1_25 - y37_46 - y56_59 - y3_53 - y14_53 - y37_55 - y26_45 - y7_41 - y15_63 - y26_63 - y0_11 - y7_59 - y27_28 - y48_60 - y19_33 - y11_38 - y19_51 - y30_51 - y11_47 - y60_61 - y12_21 - y12_30 - y23_30 - y10_60 - y33_62 - y44_62 - y25_58 - y37_41 - y34_54 - y45_54 - y3_48 - y37_50 - y22_61 - y37_59 - y26_40 - y38_42 - y18_36 - y15_49 - y15_58 - y0_6 - y27_32 - y19_28 - y0_24 - y11_24 - y11_33 - y11_42 - y41_52 - y10_46 - y41_61 - y25_44 - y52_61 - y44_57 - y1_6 - y45_49 - y3_43 - y22_56 - y59_60 - y26_44 - y7_40 - y48_50 - y0_10 - y40_46 - y8_23 - y19_23 - y0_19 - y11_19 - y0_28 - y6_62 - y33_43 - y52_56 - y10_50 - y25_48 - y10_59 - y33_61 - y25_57 - y34_35 - y3_29 - y34_44 - y22_51 - y37_49 - y3_56
 Subject to
C1: x0+x1 <=1 
C2: x0+x2-y0_2 <=1 
C3: x0+x3-y0_3 <=1 
C4: x0+x4 <=1 
C5: x0+x6-y0_6 <=1 
C6: x0+x8-y0_8 <=1 
C7: x0+x9 <=1 
C8: x0+x10-y0_10 <=1 
C9: x0+x11-y0_11 <=1 
C10: x0+x12 <=1 
C11: x0+x13-y0_13 <=1 
C12: x0+x18-y0_18 <=1 
C13: x0+x19-y0_19 <=1 
C14: x0+x21 <=1 
C15: x0+x23 <=1 
C16: x0+x24-y0_24 <=1 
C17: x0+x26-y0_26 <=1 
C18: x0+x28-y0_28 <=1 
C19: x0+x29 <=1 
C20: x0+x31 <=1 
C21: x0+x32-y0_32 <=1 
C22: x0+x33 <=1 
C23: x0+x34-y0_34 <=1 
C24: x0+x35 <=1 
C25: x0+x37 <=1 
C26: x0+x38 <=1 
C27: x0+x39 <=1 
C28: x0+x41-y0_41 <=1 
C29: x0+x43-y0_43 <=1 
C30: x0+x44-y0_44 <=1 
C31: x0+x45 <=1 
C32: x0+x46-y0_46 <=1 
C33: x0+x47 <=1 
C34: x0+x52 <=1 
C35: x0+x54-y0_54 <=1 
C36: x0+x55 <=1 
C37: x0+x58-y0_58 <=1 
C38: x0+x59-y0_59 <=1 
C39: x0+x61 <=1 
C40: x0+x62 <=1 
C41: x0+x63-y0_63 <=1 
C42: x0+x64-y0_64 <=1 
C43: x1+x2 <=1 
C44: x1+x3-y1_3 <=1 
C45: x1+x6-y1_6 <=1 
C46: x1+x8-y1_8 <=1 
C47: x1+x9 <=1 
C48: x1+x10-y1_10 <=1 
C49: x1+x13-y1_13 <=1 
C50: x1+x18-y1_18 <=1 
C51: x1+x20 <=1 
C52: x1+x21-y1_21 <=1 
C53: x1+x22-y1_22 <=1 
C54: x1+x24 <=1 
C55: x1+x25-y1_25 <=1 
C56: x1+x27-y1_27 <=1 
C57: x1+x28-y1_28 <=1 
C58: x1+x31-y1_31 <=1 
C59: x1+x32-y1_32 <=1 
C60: x1+x33 <=1 
C61: x1+x35-y1_35 <=1 
C62: x1+x36-y1_36 <=1 
C63: x1+x38-y1_38 <=1 
C64: x1+x39 <=1 
C65: x1+x40 <=1 
C66: x1+x41 <=1 
C67: x1+x43-y1_43 <=1 
C68: x1+x44 <=1 
C69: x1+x45-y1_45 <=1 
C70: x1+x46-y1_46 <=1 
C71: x1+x47-y1_47 <=1 
C72: x1+x48-y1_48 <=1 
C73: x1+x49-y1_49 <=1 
C74: x1+x50 <=1 
C75: x1+x51-y1_51 <=1 
C76: x1+x52 <=1 
C77: x1+x54 <=1 
C78: x1+x56-y1_56 <=1 
C79: x1+x58-y1_58 <=1 
C80: x1+x60 <=1 
C81: x1+x62 <=1 
C82: x1+x63 <=1 
C83: x1+x64-y1_64 <=1 
C84: x2+x5 <=1 
C85: x2+x6-y2_6 <=1 
C86: x2+x7-y2_7 <=1 
C87: x2+x8 <=1 
C88: x2+x11-y2_11 <=1 
C89: x2+x12-y2_12 <=1 
C90: x2+x17-y2_17 <=1 
C91: x2+x19-y2_19 <=1 
C92: x2+x21-y2_21 <=1 
C93: x2+x23-y2_23 <=1 
C94: x2+x24-y2_24 <=1 
C95: x2+x25 <=1 
C96: x2+x26 <=1 
C97: x2+x28-y2_28 <=1 
C98: x2+x29 <=1 
C99: x2+x34-y2_34 <=1 
C100: x2+x37-y2_37 <=1 
C101: x2+x39-y2_39 <=1 
C102: x2+x40 <=1 
C103: x2+x41-y2_41 <=1 
C104: x2+x42-y2_42 <=1 
C105: x2+x44 <=1 
C106: x2+x45-y2_45 <=1 
C107: x2+x46 <=1 
C108: x2+x48-y2_48 <=1 
C109: x2+x49 <=1 
C110: x2+x50 <=1 
C111: x2+x53 <=1 
C112: x2+x54 <=1 
C113: x2+x56 <=1 
C114: x2+x58-y2_58 <=1 
C115: x2+x60 <=1 
C116: x2+x61-y2_61 <=1 
C117: x2+x62 <=1 
C118: x2+x64 <=1 
C119: x3+x4-y3_4 <=1 
C120: x3+x5-y3_5 <=1 
C121: x3+x6 <=1 
C122: x3+x7-y3_7 <=1 
C123: x3+x9-y3_9 <=1 
C124: x3+x10-y3_10 <=1 
C125: x3+x14 <=1 
C126: x3+x19-y3_19 <=1 
C127: x3+x20 <=1 
C128: x3+x22-y3_22 <=1 
C129: x3+x23 <=1 
C130: x3+x24 <=1 
C131: x3+x26 <=1 
C132: x3+x27-y3_27 <=1 
C133: x3+x28 <=1 
C134: x3+x29-y3_29 <=1 
C135: x3+x30 <=1 
C136: x3+x31 <=1 
C137: x3+x32-y3_32 <=1 
C138: x3+x34 <=1 
C139: x3+x36 <=1 
C140: x3+x37-y3_37 <=1 
C141: x3+x40 <=1 
C142: x3+x41-y3_41 <=1 
C143: x3+x42 <=1 
C144: x3+x43-y3_43 <=1 
C145: x3+x46-y3_46 <=1 
C146: x3+x47 <=1 
C147: x3+x48-y3_48 <=1 
C148: x3+x49 <=1 
C149: x3+x50-y3_50 <=1 
C150: x3+x51-y3_51 <=1 
C151: x3+x53-y3_53 <=1 
C152: x3+x55 <=1 
C153: x3+x56-y3_56 <=1 
C154: x3+x57 <=1 
C155: x3+x58 <=1 
C156: x3+x60 <=1 
C157: x3+x62 <=1 
C158: x3+x63 <=1 
C159: x4+x6-y4_6 <=1 
C160: x4+x7 <=1 
C161: x4+x8 <=1 
C162: x4+x9 <=1 
C163: x4+x10 <=1 
C164: x4+x11 <=1 
C165: x4+x13-y4_13 <=1 
C166: x4+x14 <=1 
C167: x4+x17 <=1 
C168: x4+x21 <=1 
C169: x4+x23-y4_23 <=1 
C170: x4+x26 <=1 
C171: x4+x27-y4_27 <=1 
C172: x4+x28-y4_28 <=1 
C173: x4+x33 <=1 
C174: x4+x34-y4_34 <=1 
C175: x4+x36 <=1 
C176: x4+x37-y4_37 <=1 
C177: x4+x39 <=1 
C178: x4+x41-y4_41 <=1 
C179: x4+x42 <=1 
C180: x4+x43 <=1 
C181: x4+x44-y4_44 <=1 
C182: x4+x46-y4_46 <=1 
C183: x4+x47-y4_47 <=1 
C184: x4+x50 <=1 
C185: x4+x51 <=1 
C186: x4+x52-y4_52 <=1 
C187: x4+x53-y4_53 <=1 
C188: x4+x54 <=1 
C189: x4+x55 <=1 
C190: x4+x56 <=1 
C191: x4+x57-y4_57 <=1 
C192: x4+x58 <=1 
C193: x4+x59-y4_59 <=1 
C194: x4+x60 <=1 
C195: x4+x62 <=1 
C196: x4+x63 <=1 
C197: x4+x64 <=1 
C198: x5+x6-y5_6 <=1 
C199: x5+x7-y5_7 <=1 
C200: x5+x8 <=1 
C201: x5+x11-y5_11 <=1 
C202: x5+x12 <=1 
C203: x5+x13 <=1 
C204: x5+x15-y5_15 <=1 
C205: x5+x18-y5_18 <=1 
C206: x5+x19 <=1 
C207: x5+x21 <=1 
C208: x5+x22 <=1 
C209: x5+x23 <=1 
C210: x5+x24 <=1 
C211: x5+x25-y5_25 <=1 
C212: x5+x26-y5_26 <=1 
C213: x5+x27 <=1 
C214: x5+x28 <=1 
C215: x5+x29-y5_29 <=1 
C216: x5+x33 <=1 
C217: x5+x34-y5_34 <=1 
C218: x5+x38-y5_38 <=1 
C219: x5+x42-y5_42 <=1 
C220: x5+x43-y5_43 <=1 
C221: x5+x44-y5_44 <=1 
C222: x5+x45-y5_45 <=1 
C223: x5+x46-y5_46 <=1 
C224: x5+x47-y5_47 <=1 
C225: x5+x49 <=1 
C226: x5+x50-y5_50 <=1 
C227: x5+x51-y5_51 <=1 
C228: x5+x54 <=1 
C229: x5+x56-y5_56 <=1 
C230: x5+x57 <=1 
C231: x5+x62-y5_62 <=1 
C232: x5+x63-y5_63 <=1 
C233: x6+x9 <=1 
C234: x6+x11 <=1 
C235: x6+x12-y6_12 <=1 
C236: x6+x13 <=1 
C237: x6+x15-y6_15 <=1 
C238: x6+x17 <=1 
C239: x6+x18 <=1 
C240: x6+x19-y6_19 <=1 
C241: x6+x21 <=1 
C242: x6+x23-y6_23 <=1 
C243: x6+x25 <=1 
C244: x6+x29-y6_29 <=1 
C245: x6+x31 <=1 
C246: x6+x32-y6_32 <=1 
C247: x6+x33-y6_33 <=1 
C248: x6+x35 <=1 
C249: x6+x37 <=1 
C250: x6+x38-y6_38 <=1 
C251: x6+x39-y6_39 <=1 
C252: x6+x40 <=1 
C253: x6+x42-y6_42 <=1 
C254: x6+x45-y6_45 <=1 
C255: x6+x46 <=1 
C256: x6+x47 <=1 
C257: x6+x48-y6_48 <=1 
C258: x6+x49 <=1 
C259: x6+x50-y6_50 <=1 
C260: x6+x51 <=1 
C261: x6+x53 <=1 
C262: x6+x54-y6_54 <=1 
C263: x6+x56 <=1 
C264: x6+x57 <=1 
C265: x6+x62-y6_62 <=1 
C266: x6+x63 <=1 
C267: x6+x64 <=1 
C268: x7+x9 <=1 
C269: x7+x14 <=1 
C270: x7+x16-y7_16 <=1 
C271: x7+x18 <=1 
C272: x7+x20 <=1 
C273: x7+x21-y7_21 <=1 
C274: x7+x24 <=1 
C275: x7+x25 <=1 
C276: x7+x27 <=1 
C277: x7+x28 <=1 
C278: x7+x34-y7_34 <=1 
C279: x7+x37 <=1 
C280: x7+x39-y7_39 <=1 
C281: x7+x40-y7_40 <=1 
C282: x7+x41-y7_41 <=1 
C283: x7+x42 <=1 
C284: x7+x43-y7_43 <=1 
C285: x7+x44 <=1 
C286: x7+x46 <=1 
C287: x7+x48 <=1 
C288: x7+x49 <=1 
C289: x7+x51-y7_51 <=1 
C290: x7+x52 <=1 
C291: x7+x55-y7_55 <=1 
C292: x7+x56 <=1 
C293: x7+x57 <=1 
C294: x7+x58 <=1 
C295: x7+x59-y7_59 <=1 
C296: x7+x60-y7_60 <=1 
C297: x7+x62-y7_62 <=1 
C298: x7+x63 <=1 
C299: x7+x64 <=1 
C300: x8+x9 <=1 
C301: x8+x10 <=1 
C302: x8+x12 <=1 
C303: x8+x13 <=1 
C304: x8+x16-y8_16 <=1 
C305: x8+x17 <=1 
C306: x8+x18 <=1 
C307: x8+x22-y8_22 <=1 
C308: x8+x23-y8_23 <=1 
C309: x8+x25-y8_25 <=1 
C310: x8+x26 <=1 
C311: x8+x27-y8_27 <=1 
C312: x8+x30-y8_30 <=1 
C313: x8+x31 <=1 
C314: x8+x32-y8_32 <=1 
C315: x8+x33 <=1 
C316: x8+x34 <=1 
C317: x8+x37 <=1 
C318: x8+x38-y8_38 <=1 
C319: x8+x39-y8_39 <=1 
C320: x8+x40 <=1 
C321: x8+x41 <=1 
C322: x8+x42 <=1 
C323: x8+x43-y8_43 <=1 
C324: x8+x44-y8_44 <=1 
C325: x8+x45 <=1 
C326: x8+x46 <=1 
C327: x8+x48 <=1 
C328: x8+x50-y8_50 <=1 
C329: x8+x51-y8_51 <=1 
C330: x8+x52-y8_52 <=1 
C331: x8+x53-y8_53 <=1 
C332: x8+x54 <=1 
C333: x8+x55 <=1 
C334: x8+x57 <=1 
C335: x8+x58-y8_58 <=1 
C336: x8+x59-y8_59 <=1 
C337: x8+x60-y8_60 <=1 
C338: x8+x61 <=1 
C339: x8+x62 <=1 
C340: x9+x10 <=1 
C341: x9+x12-y9_12 <=1 
C342: x9+x13-y9_13 <=1 
C343: x9+x16 <=1 
C344: x9+x19-y9_19 <=1 
C345: x9+x22-y9_22 <=1 
C346: x9+x23-y9_23 <=1 
C347: x9+x24 <=1 
C348: x9+x26-y9_26 <=1 
C349: x9+x28-y9_28 <=1 
C350: x9+x31 <=1 
C351: x9+x33-y9_33 <=1 
C352: x9+x35 <=1 
C353: x9+x37-y9_37 <=1 
C354: x9+x38-y9_38 <=1 
C355: x9+x39-y9_39 <=1 
C356: x9+x40-y9_40 <=1 
C357: x9+x42 <=1 
C358: x9+x43 <=1 
C359: x9+x44-y9_44 <=1 
C360: x9+x48 <=1 
C361: x9+x49 <=1 
C362: x9+x55 <=1 
C363: x9+x56 <=1 
C364: x9+x57 <=1 
C365: x9+x58 <=1 
C366: x9+x60-y9_60 <=1 
C367: x9+x61-y9_61 <=1 
C368: x9+x63-y9_63 <=1 
C369: x9+x64 <=1 
C370: x10+x12-y10_12 <=1 
C371: x10+x14-y10_14 <=1 
C372: x10+x16 <=1 
C373: x10+x17-y10_17 <=1 
C374: x10+x18-y10_18 <=1 
C375: x10+x19-y10_19 <=1 
C376: x10+x22 <=1 
C377: x10+x23 <=1 
C378: x10+x25 <=1 
C379: x10+x28-y10_28 <=1 
C380: x10+x29 <=1 
C381: x10+x30-y10_30 <=1 
C382: x10+x32-y10_32 <=1 
C383: x10+x34-y10_34 <=1 
C384: x10+x35 <=1 
C385: x10+x36-y10_36 <=1 
C386: x10+x37 <=1 
C387: x10+x38-y10_38 <=1 
C388: x10+x42 <=1 
C389: x10+x45-y10_45 <=1 
C390: x10+x46-y10_46 <=1 
C391: x10+x48-y10_48 <=1 
C392: x10+x50-y10_50 <=1 
C393: x10+x56 <=1 
C394: x10+x57-y10_57 <=1 
C395: x10+x58 <=1 
C396: x10+x59-y10_59 <=1 
C397: x10+x60-y10_60 <=1 
C398: x10+x62-y10_62 <=1 
C399: x10+x63 <=1 
C400: x10+x64 <=1 
C401: x11+x12-y11_12 <=1 
C402: x11+x15 <=1 
C403: x11+x16-y11_16 <=1 
C404: x11+x17-y11_17 <=1 
C405: x11+x19-y11_19 <=1 
C406: x11+x20 <=1 
C407: x11+x24-y11_24 <=1 
C408: x11+x27 <=1 
C409: x11+x28 <=1 
C410: x11+x29 <=1 
C411: x11+x32-y11_32 <=1 
C412: x11+x33-y11_33 <=1 
C413: x11+x34-y11_34 <=1 
C414: x11+x36-y11_36 <=1 
C415: x11+x38-y11_38 <=1 
C416: x11+x39 <=1 
C417: x11+x40 <=1 
C418: x11+x42-y11_42 <=1 
C419: x11+x44-y11_44 <=1 
C420: x11+x45 <=1 
C421: x11+x46-y11_46 <=1 
C422: x11+x47-y11_47 <=1 
C423: x11+x48 <=1 
C424: x11+x49-y11_49 <=1 
C425: x11+x51 <=1 
C426: x11+x52 <=1 
C427: x11+x53-y11_53 <=1 
C428: x11+x54-y11_54 <=1 
C429: x11+x55 <=1 
C430: x11+x56 <=1 
C431: x11+x58 <=1 
C432: x11+x59-y11_59 <=1 
C433: x11+x60-y11_60 <=1 
C434: x11+x61-y11_61 <=1 
C435: x11+x62 <=1 
C436: x11+x63 <=1 
C437: x11+x64 <=1 
C438: x12+x14-y12_14 <=1 
C439: x12+x15 <=1 
C440: x12+x17-y12_17 <=1 
C441: x12+x18 <=1 
C442: x12+x19 <=1 
C443: x12+x20 <=1 
C444: x12+x21-y12_21 <=1 
C445: x12+x28 <=1 
C446: x12+x30-y12_30 <=1 
C447: x12+x32-y12_32 <=1 
C448: x12+x34-y12_34 <=1 
C449: x12+x36-y12_36 <=1 
C450: x12+x38-y12_38 <=1 
C451: x12+x42-y12_42 <=1 
C452: x12+x43-y12_43 <=1 
C453: x12+x44-y12_44 <=1 
C454: x12+x45 <=1 
C455: x12+x48 <=1 
C456: x12+x50 <=1 
C457: x12+x55 <=1 
C458: x12+x56-y12_56 <=1 
C459: x12+x57 <=1 
C460: x12+x59 <=1 
C461: x12+x60-y12_60 <=1 
C462: x12+x61 <=1 
C463: x12+x62 <=1 
C464: x12+x63 <=1 
C465: x12+x64-y12_64 <=1 
C466: x13+x14-y13_14 <=1 
C467: x13+x16 <=1 
C468: x13+x17 <=1 
C469: x13+x18 <=1 
C470: x13+x19-y13_19 <=1 
C471: x13+x20-y13_20 <=1 
C472: x13+x22 <=1 
C473: x13+x23 <=1 
C474: x13+x24 <=1 
C475: x13+x25 <=1 
C476: x13+x27-y13_27 <=1 
C477: x13+x28-y13_28 <=1 
C478: x13+x29 <=1 
C479: x13+x30 <=1 
C480: x13+x32-y13_32 <=1 
C481: x13+x33 <=1 
C482: x13+x34-y13_34 <=1 
C483: x13+x35 <=1 
C484: x13+x38-y13_38 <=1 
C485: x13+x39 <=1 
C486: x13+x40-y13_40 <=1 
C487: x13+x43 <=1 
C488: x13+x44 <=1 
C489: x13+x46-y13_46 <=1 
C490: x13+x47-y13_47 <=1 
C491: x13+x48 <=1 
C492: x13+x49-y13_49 <=1 
C493: x13+x52-y13_52 <=1 
C494: x13+x54-y13_54 <=1 
C495: x13+x55 <=1 
C496: x13+x56-y13_56 <=1 
C497: x13+x57 <=1 
C498: x13+x59 <=1 
C499: x13+x61 <=1 
C500: x13+x64 <=1 
C501: x14+x18-y14_18 <=1 
C502: x14+x19-y14_19 <=1 
C503: x14+x21-y14_21 <=1 
C504: x14+x23 <=1 
C505: x14+x24 <=1 
C506: x14+x26 <=1 
C507: x14+x27-y14_27 <=1 
C508: x14+x28 <=1 
C509: x14+x30-y14_30 <=1 
C510: x14+x32 <=1 
C511: x14+x33-y14_33 <=1 
C512: x14+x37 <=1 
C513: x14+x39 <=1 
C514: x14+x40 <=1 
C515: x14+x42 <=1 
C516: x14+x43 <=1 
C517: x14+x44 <=1 
C518: x14+x45 <=1 
C519: x14+x48 <=1 
C520: x14+x50-y14_50 <=1 
C521: x14+x51-y14_51 <=1 
C522: x14+x52 <=1 
C523: x14+x53-y14_53 <=1 
C524: x14+x55 <=1 
C525: x14+x56 <=1 
C526: x14+x58 <=1 
C527: x14+x59 <=1 
C528: x14+x60-y14_60 <=1 
C529: x14+x61 <=1 
C530: x14+x62 <=1 
C531: x14+x63 <=1 
C532: x15+x16 <=1 
C533: x15+x18-y15_18 <=1 
C534: x15+x19 <=1 
C535: x15+x20 <=1 
C536: x15+x21 <=1 
C537: x15+x22 <=1 
C538: x15+x23-y15_23 <=1 
C539: x15+x25 <=1 
C540: x15+x26 <=1 
C541: x15+x27 <=1 
C542: x15+x29-y15_29 <=1 
C543: x15+x30-y15_30 <=1 
C544: x15+x33 <=1 
C545: x15+x34 <=1 
C546: x15+x35 <=1 
C547: x15+x36 <=1 
C548: x15+x37 <=1 
C549: x15+x41-y15_41 <=1 
C550: x15+x42 <=1 
C551: x15+x43-y15_43 <=1 
C552: x15+x44 <=1 
C553: x15+x46-y15_46 <=1 
C554: x15+x48 <=1 
C555: x15+x49-y15_49 <=1 
C556: x15+x50-y15_50 <=1 
C557: x15+x51 <=1 
C558: x15+x52-y15_52 <=1 
C559: x15+x53 <=1 
C560: x15+x55-y15_55 <=1 
C561: x15+x56-y15_56 <=1 
C562: x15+x57 <=1 
C563: x15+x58-y15_58 <=1 
C564: x15+x59 <=1 
C565: x15+x61-y15_61 <=1 
C566: x15+x63-y15_63 <=1 
C567: x15+x64 <=1 
C568: x16+x17-y16_17 <=1 
C569: x16+x18 <=1 
C570: x16+x19-y16_19 <=1 
C571: x16+x20-y16_20 <=1 
C572: x16+x21 <=1 
C573: x16+x22-y16_22 <=1 
C574: x16+x24-y16_24 <=1 
C575: x16+x25 <=1 
C576: x16+x27-y16_27 <=1 
C577: x16+x28 <=1 
C578: x16+x30 <=1 
C579: x16+x32-y16_32 <=1 
C580: x16+x35-y16_35 <=1 
C581: x16+x38 <=1 
C582: x16+x39 <=1 
C583: x16+x41 <=1 
C584: x16+x44 <=1 
C585: x16+x45 <=1 
C586: x16+x47-y16_47 <=1 
C587: x16+x49 <=1 
C588: x16+x51-y16_51 <=1 
C589: x16+x53 <=1 
C590: x16+x54-y16_54 <=1 
C591: x16+x56-y16_56 <=1 
C592: x16+x57 <=1 
C593: x16+x58 <=1 
C594: x16+x61 <=1 
C595: x16+x62-y16_62 <=1 
C596: x17+x20-y17_20 <=1 
C597: x17+x22 <=1 
C598: x17+x24-y17_24 <=1 
C599: x17+x25 <=1 
C600: x17+x26-y17_26 <=1 
C601: x17+x27 <=1 
C602: x17+x30-y17_30 <=1 
C603: x17+x31 <=1 
C604: x17+x35 <=1 
C605: x17+x37-y17_37 <=1 
C606: x17+x41 <=1 
C607: x17+x42-y17_42 <=1 
C608: x17+x45 <=1 
C609: x17+x47-y17_47 <=1 
C610: x17+x48 <=1 
C611: x17+x50 <=1 
C612: x17+x52-y17_52 <=1 
C613: x17+x53-y17_53 <=1 
C614: x17+x54-y17_54 <=1 
C615: x17+x57-y17_57 <=1 
C616: x17+x58-y17_58 <=1 
C617: x17+x59 <=1 
C618: x17+x61-y17_61 <=1 
C619: x17+x64-y17_64 <=1 
C620: x18+x20 <=1 
C621: x18+x21 <=1 
C622: x18+x24 <=1 
C623: x18+x26 <=1 
C624: x18+x27 <=1 
C625: x18+x28 <=1 
C626: x18+x29-y18_29 <=1 
C627: x18+x30-y18_30 <=1 
C628: x18+x33 <=1 
C629: x18+x34-y18_34 <=1 
C630: x18+x35-y18_35 <=1 
C631: x18+x36-y18_36 <=1 
C632: x18+x37-y18_37 <=1 
C633: x18+x41 <=1 
C634: x18+x42-y18_42 <=1 
C635: x18+x43-y18_43 <=1 
C636: x18+x44-y18_44 <=1 
C637: x18+x45 <=1 
C638: x18+x46-y18_46 <=1 
C639: x18+x47-y18_47 <=1 
C640: x18+x48-y18_48 <=1 
C641: x18+x49 <=1 
C642: x18+x51 <=1 
C643: x18+x52 <=1 
C644: x18+x54 <=1 
C645: x18+x57 <=1 
C646: x18+x61-y18_61 <=1 
C647: x18+x63 <=1 
C648: x18+x64 <=1 
C649: x19+x20 <=1 
C650: x19+x23-y19_23 <=1 
C651: x19+x27 <=1 
C652: x19+x28-y19_28 <=1 
C653: x19+x32 <=1 
C654: x19+x33-y19_33 <=1 
C655: x19+x34-y19_34 <=1 
C656: x19+x35 <=1 
C657: x19+x37 <=1 
C658: x19+x38 <=1 
C659: x19+x40 <=1 
C660: x19+x42 <=1 
C661: x19+x43-y19_43 <=1 
C662: x19+x44-y19_44 <=1 
C663: x19+x45-y19_45 <=1 
C664: x19+x46 <=1 
C665: x19+x47-y19_47 <=1 
C666: x19+x48-y19_48 <=1 
C667: x19+x50-y19_50 <=1 
C668: x19+x51-y19_51 <=1 
C669: x19+x52-y19_52 <=1 
C670: x19+x53-y19_53 <=1 
C671: x19+x54-y19_54 <=1 
C672: x19+x56-y19_56 <=1 
C673: x19+x57-y19_57 <=1 
C674: x20+x21 <=1 
C675: x20+x23 <=1 
C676: x20+x24 <=1 
C677: x20+x25 <=1 
C678: x20+x27 <=1 
C679: x20+x28-y20_28 <=1 
C680: x20+x30-y20_30 <=1 
C681: x20+x31-y20_31 <=1 
C682: x20+x32-y20_32 <=1 
C683: x20+x34 <=1 
C684: x20+x36 <=1 
C685: x20+x38-y20_38 <=1 
C686: x20+x39-y20_39 <=1 
C687: x20+x41-y20_41 <=1 
C688: x20+x43 <=1 
C689: x20+x45 <=1 
C690: x20+x46-y20_46 <=1 
C691: x20+x47-y20_47 <=1 
C692: x20+x48-y20_48 <=1 
C693: x20+x49 <=1 
C694: x20+x52-y20_52 <=1 
C695: x20+x53 <=1 
C696: x20+x55-y20_55 <=1 
C697: x20+x56 <=1 
C698: x20+x60-y20_60 <=1 
C699: x20+x61 <=1 
C700: x20+x63-y20_63 <=1 
C701: x21+x22 <=1 
C702: x21+x24 <=1 
C703: x21+x25 <=1 
C704: x21+x26-y21_26 <=1 
C705: x21+x28 <=1 
C706: x21+x30 <=1 
C707: x21+x31 <=1 
C708: x21+x32-y21_32 <=1 
C709: x21+x33 <=1 
C710: x21+x34 <=1 
C711: x21+x35-y21_35 <=1 
C712: x21+x36-y21_36 <=1 
C713: x21+x37-y21_37 <=1 
C714: x21+x38 <=1 
C715: x21+x39-y21_39 <=1 
C716: x21+x40 <=1 
C717: x21+x41 <=1 
C718: x21+x42 <=1 
C719: x21+x43 <=1 
C720: x21+x44 <=1 
C721: x21+x45 <=1 
C722: x21+x49 <=1 
C723: x21+x50 <=1 
C724: x21+x52-y21_52 <=1 
C725: x21+x54 <=1 
C726: x21+x56 <=1 
C727: x21+x57-y21_57 <=1 
C728: x21+x58 <=1 
C729: x21+x59 <=1 
C730: x21+x60 <=1 
C731: x21+x63-y21_63 <=1 
C732: x21+x64 <=1 
C733: x22+x24 <=1 
C734: x22+x25 <=1 
C735: x22+x26-y22_26 <=1 
C736: x22+x29 <=1 
C737: x22+x31 <=1 
C738: x22+x32 <=1 
C739: x22+x35-y22_35 <=1 
C740: x22+x39-y22_39 <=1 
C741: x22+x40-y22_40 <=1 
C742: x22+x41 <=1 
C743: x22+x42 <=1 
C744: x22+x44-y22_44 <=1 
C745: x22+x45 <=1 
C746: x22+x46-y22_46 <=1 
C747: x22+x47 <=1 
C748: x22+x48-y22_48 <=1 
C749: x22+x51-y22_51 <=1 
C750: x22+x52 <=1 
C751: x22+x54-y22_54 <=1 
C752: x22+x55-y22_55 <=1 
C753: x22+x56-y22_56 <=1 
C754: x22+x58-y22_58 <=1 
C755: x22+x60-y22_60 <=1 
C756: x22+x61-y22_61 <=1 
C757: x22+x62 <=1 
C758: x23+x24-y23_24 <=1 
C759: x23+x27-y23_27 <=1 
C760: x23+x29-y23_29 <=1 
C761: x23+x30-y23_30 <=1 
C762: x23+x31-y23_31 <=1 
C763: x23+x34 <=1 
C764: x23+x35-y23_35 <=1 
C765: x23+x36 <=1 
C766: x23+x37-y23_37 <=1 
C767: x23+x38-y23_38 <=1 
C768: x23+x46 <=1 
C769: x23+x47 <=1 
C770: x23+x49 <=1 
C771: x23+x50-y23_50 <=1 
C772: x23+x53 <=1 
C773: x23+x57-y23_57 <=1 
C774: x23+x60 <=1 
C775: x23+x61-y23_61 <=1 
C776: x23+x63 <=1 
C777: x23+x64 <=1 
C778: x24+x25-y24_25 <=1 
C779: x24+x26 <=1 
C780: x24+x27-y24_27 <=1 
C781: x24+x29-y24_29 <=1 
C782: x24+x30 <=1 
C783: x24+x32 <=1 
C784: x24+x33 <=1 
C785: x24+x34-y24_34 <=1 
C786: x24+x35-y24_35 <=1 
C787: x24+x36-y24_36 <=1 
C788: x24+x37 <=1 
C789: x24+x38 <=1 
C790: x24+x39-y24_39 <=1 
C791: x24+x42-y24_42 <=1 
C792: x24+x44-y24_44 <=1 
C793: x24+x47-y24_47 <=1 
C794: x24+x49-y24_49 <=1 
C795: x24+x51 <=1 
C796: x24+x52 <=1 
C797: x24+x53 <=1 
C798: x24+x54-y24_54 <=1 
C799: x24+x55-y24_55 <=1 
C800: x24+x57 <=1 
C801: x24+x58 <=1 
C802: x24+x59-y24_59 <=1 
C803: x24+x63-y24_63 <=1 
C804: x24+x64 <=1 
C805: x25+x26 <=1 
C806: x25+x30 <=1 
C807: x25+x33-y25_33 <=1 
C808: x25+x34-y25_34 <=1 
C809: x25+x35-y25_35 <=1 
C810: x25+x36 <=1 
C811: x25+x37-y25_37 <=1 
C812: x25+x38 <=1 
C813: x25+x40 <=1 
C814: x25+x41-y25_41 <=1 
C815: x25+x44-y25_44 <=1 
C816: x25+x46 <=1 
C817: x25+x47 <=1 
C818: x25+x48-y25_48 <=1 
C819: x25+x50 <=1 
C820: x25+x51-y25_51 <=1 
C821: x25+x52 <=1 
C822: x25+x53 <=1 
C823: x25+x55 <=1 
C824: x25+x56 <=1 
C825: x25+x57-y25_57 <=1 
C826: x25+x58-y25_58 <=1 
C827: x25+x59 <=1 
C828: x25+x60-y25_60 <=1 
C829: x25+x61-y25_61 <=1 
C830: x25+x62 <=1 
C831: x25+x63 <=1 
C832: x25+x64 <=1 
C833: x26+x27 <=1 
C834: x26+x28 <=1 
C835: x26+x29-y26_29 <=1 
C836: x26+x30-y26_30 <=1 
C837: x26+x31 <=1 
C838: x26+x32 <=1 
C839: x26+x36 <=1 
C840: x26+x38 <=1 
C841: x26+x40-y26_40 <=1 
C842: x26+x41 <=1 
C843: x26+x42-y26_42 <=1 
C844: x26+x43-y26_43 <=1 
C845: x26+x44-y26_44 <=1 
C846: x26+x45-y26_45 <=1 
C847: x26+x46-y26_46 <=1 
C848: x26+x51 <=1 
C849: x26+x53-y26_53 <=1 
C850: x26+x55-y26_55 <=1 
C851: x26+x57-y26_57 <=1 
C852: x26+x59-y26_59 <=1 
C853: x26+x60-y26_60 <=1 
C854: x26+x61 <=1 
C855: x26+x62 <=1 
C856: x26+x63-y26_63 <=1 
C857: x27+x28-y27_28 <=1 
C858: x27+x29-y27_29 <=1 
C859: x27+x30-y27_30 <=1 
C860: x27+x31 <=1 
C861: x27+x32-y27_32 <=1 
C862: x27+x34-y27_34 <=1 
C863: x27+x35 <=1 
C864: x27+x39-y27_39 <=1 
C865: x27+x41-y27_41 <=1 
C866: x27+x42 <=1 
C867: x27+x43-y27_43 <=1 
C868: x27+x45-y27_45 <=1 
C869: x27+x48-y27_48 <=1 
C870: x27+x49-y27_49 <=1 
C871: x27+x51 <=1 
C872: x27+x52 <=1 
C873: x27+x53 <=1 
C874: x27+x55 <=1 
C875: x27+x56-y27_56 <=1 
C876: x27+x57 <=1 
C877: x27+x58 <=1 
C878: x27+x59 <=1 
C879: x27+x60-y27_60 <=1 
C880: x27+x61-y27_61 <=1 
C881: x27+x63-y27_63 <=1 
C882: x28+x29 <=1 
C883: x28+x35-y28_35 <=1 
C884: x28+x36-y28_36 <=1 
C885: x28+x37 <=1 
C886: x28+x39 <=1 
C887: x28+x41 <=1 
C888: x28+x42-y28_42 <=1 
C889: x28+x43-y28_43 <=1 
C890: x28+x44-y28_44 <=1 
C891: x28+x47 <=1 
C892: x28+x52 <=1 
C893: x28+x53 <=1 
C894: x28+x56 <=1 
C895: x28+x58-y28_58 <=1 
C896: x28+x60-y28_60 <=1 
C897: x28+x61-y28_61 <=1 
C898: x28+x62 <=1 
C899: x29+x31 <=1 
C900: x29+x33 <=1 
C901: x29+x35-y29_35 <=1 
C902: x29+x36 <=1 
C903: x29+x37 <=1 
C904: x29+x44-y29_44 <=1 
C905: x29+x45 <=1 
C906: x29+x47-y29_47 <=1 
C907: x29+x48 <=1 
C908: x29+x49 <=1 
C909: x29+x50 <=1 
C910: x29+x53 <=1 
C911: x29+x54-y29_54 <=1 
C912: x29+x55 <=1 
C913: x29+x56 <=1 
C914: x29+x61-y29_61 <=1 
C915: x29+x62-y29_62 <=1 
C916: x29+x63-y29_63 <=1 
C917: x30+x36-y30_36 <=1 
C918: x30+x38-y30_38 <=1 
C919: x30+x40-y30_40 <=1 
C920: x30+x44-y30_44 <=1 
C921: x30+x48-y30_48 <=1 
C922: x30+x50-y30_50 <=1 
C923: x30+x51-y30_51 <=1 
C924: x30+x52 <=1 
C925: x30+x56 <=1 
C926: x30+x58-y30_58 <=1 
C927: x30+x59-y30_59 <=1 
C928: x30+x60-y30_60 <=1 
C929: x30+x62 <=1 
C930: x30+x63 <=1 
C931: x30+x64 <=1 
C932: x31+x32-y31_32 <=1 
C933: x31+x33-y31_33 <=1 
C934: x31+x36 <=1 
C935: x31+x37-y31_37 <=1 
C936: x31+x39-y31_39 <=1 
C937: x31+x40-y31_40 <=1 
C938: x31+x43 <=1 
C939: x31+x45 <=1 
C940: x31+x48 <=1 
C941: x31+x49-y31_49 <=1 
C942: x31+x50 <=1 
C943: x31+x51-y31_51 <=1 
C944: x31+x53-y31_53 <=1 
C945: x31+x54 <=1 
C946: x31+x57 <=1 
C947: x31+x58-y31_58 <=1 
C948: x31+x60-y31_60 <=1 
C949: x31+x61 <=1 
C950: x31+x63 <=1 
C951: x32+x33-y32_33 <=1 
C952: x32+x34-y32_34 <=1 
C953: x32+x35 <=1 
C954: x32+x37-y32_37 <=1 
C955: x32+x39-y32_39 <=1 
C956: x32+x40 <=1 
C957: x32+x41 <=1 
C958: x32+x43-y32_43 <=1 
C959: x32+x46 <=1 
C960: x32+x47 <=1 
C961: x32+x48 <=1 
C962: x32+x49 <=1 
C963: x32+x50 <=1 
C964: x32+x51 <=1 
C965: x32+x54 <=1 
C966: x32+x55 <=1 
C967: x32+x56 <=1 
C968: x32+x57 <=1 
C969: x32+x59 <=1 
C970: x32+x60 <=1 
C971: x32+x64-y32_64 <=1 
C972: x33+x34 <=1 
C973: x33+x35-y33_35 <=1 
C974: x33+x36 <=1 
C975: x33+x37 <=1 
C976: x33+x40-y33_40 <=1 
C977: x33+x42-y33_42 <=1 
C978: x33+x43-y33_43 <=1 
C979: x33+x45 <=1 
C980: x33+x46-y33_46 <=1 
C981: x33+x48 <=1 
C982: x33+x49-y33_49 <=1 
C983: x33+x50-y33_50 <=1 
C984: x33+x51-y33_51 <=1 
C985: x33+x57 <=1 
C986: x33+x58-y33_58 <=1 
C987: x33+x59-y33_59 <=1 
C988: x33+x60-y33_60 <=1 
C989: x33+x61-y33_61 <=1 
C990: x33+x62-y33_62 <=1 
C991: x33+x63 <=1 
C992: x34+x35-y34_35 <=1 
C993: x34+x37-y34_37 <=1 
C994: x34+x38 <=1 
C995: x34+x41-y34_41 <=1 
C996: x34+x43-y34_43 <=1 
C997: x34+x44-y34_44 <=1 
C998: x34+x45 <=1 
C999: x34+x46-y34_46 <=1 
C1000: x34+x47 <=1 
C1001: x34+x52 <=1 
C1002: x34+x53 <=1 
C1003: x34+x54-y34_54 <=1 
C1004: x34+x57 <=1 
C1005: x34+x59 <=1 
C1006: x34+x60 <=1 
C1007: x35+x36 <=1 
C1008: x35+x40 <=1 
C1009: x35+x43 <=1 
C1010: x35+x44 <=1 
C1011: x35+x45 <=1 
C1012: x35+x47-y35_47 <=1 
C1013: x35+x51-y35_51 <=1 
C1014: x35+x54 <=1 
C1015: x35+x57-y35_57 <=1 
C1016: x35+x58-y35_58 <=1 
C1017: x35+x59-y35_59 <=1 
C1018: x35+x60-y35_60 <=1 
C1019: x35+x61 <=1 
C1020: x35+x63 <=1 
C1021: x35+x64 <=1 
C1022: x36+x37 <=1 
C1023: x36+x38-y36_38 <=1 
C1024: x36+x39-y36_39 <=1 
C1025: x36+x40-y36_40 <=1 
C1026: x36+x41 <=1 
C1027: x36+x42-y36_42 <=1 
C1028: x36+x44 <=1 
C1029: x36+x46-y36_46 <=1 
C1030: x36+x48-y36_48 <=1 
C1031: x36+x52 <=1 
C1032: x36+x53-y36_53 <=1 
C1033: x36+x55-y36_55 <=1 
C1034: x36+x56 <=1 
C1035: x36+x58-y36_58 <=1 
C1036: x36+x61 <=1 
C1037: x36+x63 <=1 
C1038: x36+x64 <=1 
C1039: x37+x39 <=1 
C1040: x37+x41-y37_41 <=1 
C1041: x37+x43-y37_43 <=1 
C1042: x37+x44 <=1 
C1043: x37+x46-y37_46 <=1 
C1044: x37+x47 <=1 
C1045: x37+x49-y37_49 <=1 
C1046: x37+x50-y37_50 <=1 
C1047: x37+x52 <=1 
C1048: x37+x54 <=1 
C1049: x37+x55-y37_55 <=1 
C1050: x37+x58-y37_58 <=1 
C1051: x37+x59-y37_59 <=1 
C1052: x37+x61-y37_61 <=1 
C1053: x37+x62 <=1 
C1054: x37+x63 <=1 
C1055: x38+x41-y38_41 <=1 
C1056: x38+x42-y38_42 <=1 
C1057: x38+x43 <=1 
C1058: x38+x44-y38_44 <=1 
C1059: x38+x45 <=1 
C1060: x38+x46-y38_46 <=1 
C1061: x38+x47 <=1 
C1062: x38+x50 <=1 
C1063: x38+x51-y38_51 <=1 
C1064: x38+x52 <=1 
C1065: x38+x53-y38_53 <=1 
C1066: x38+x55 <=1 
C1067: x38+x56 <=1 
C1068: x38+x59 <=1 
C1069: x38+x60-y38_60 <=1 
C1070: x38+x62 <=1 
C1071: x38+x63 <=1 
C1072: x38+x64-y38_64 <=1 
C1073: x39+x41 <=1 
C1074: x39+x44-y39_44 <=1 
C1075: x39+x47-y39_47 <=1 
C1076: x39+x49 <=1 
C1077: x39+x50-y39_50 <=1 
C1078: x39+x51-y39_51 <=1 
C1079: x39+x52-y39_52 <=1 
C1080: x39+x53 <=1 
C1081: x39+x57 <=1 
C1082: x39+x58 <=1 
C1083: x39+x59-y39_59 <=1 
C1084: x39+x60-y39_60 <=1 
C1085: x39+x61-y39_61 <=1 
C1086: x39+x63 <=1 
C1087: x40+x42 <=1 
C1088: x40+x44 <=1 
C1089: x40+x46-y40_46 <=1 
C1090: x40+x48-y40_48 <=1 
C1091: x40+x49-y40_49 <=1 
C1092: x40+x50-y40_50 <=1 
C1093: x40+x51 <=1 
C1094: x40+x52 <=1 
C1095: x40+x53 <=1 
C1096: x40+x54 <=1 
C1097: x40+x55 <=1 
C1098: x40+x57 <=1 
C1099: x40+x58 <=1 
C1100: x40+x59 <=1 
C1101: x40+x60 <=1 
C1102: x40+x61-y40_61 <=1 
C1103: x40+x62 <=1 
C1104: x41+x44-y41_44 <=1 
C1105: x41+x45 <=1 
C1106: x41+x47 <=1 
C1107: x41+x48 <=1 
C1108: x41+x52-y41_52 <=1 
C1109: x41+x53-y41_53 <=1 
C1110: x41+x57 <=1 
C1111: x41+x58-y41_58 <=1 
C1112: x41+x59 <=1 
C1113: x41+x61-y41_61 <=1 
C1114: x42+x44-y42_44 <=1 
C1115: x42+x45 <=1 
C1116: x42+x47-y42_47 <=1 
C1117: x42+x48 <=1 
C1118: x42+x49-y42_49 <=1 
C1119: x42+x50-y42_50 <=1 
C1120: x42+x51 <=1 
C1121: x42+x56 <=1 
C1122: x42+x57-y42_57 <=1 
C1123: x42+x58 <=1 
C1124: x42+x60 <=1 
C1125: x42+x62-y42_62 <=1 
C1126: x42+x63 <=1 
C1127: x42+x64-y42_64 <=1 
C1128: x43+x44-y43_44 <=1 
C1129: x43+x47-y43_47 <=1 
C1130: x43+x48-y43_48 <=1 
C1131: x43+x50-y43_50 <=1 
C1132: x43+x55-y43_55 <=1 
C1133: x43+x56-y43_56 <=1 
C1134: x43+x59 <=1 
C1135: x43+x60 <=1 
C1136: x43+x62-y43_62 <=1 
C1137: x43+x63 <=1 
C1138: x43+x64-y43_64 <=1 
C1139: x44+x45-y44_45 <=1 
C1140: x44+x46 <=1 
C1141: x44+x47-y44_47 <=1 
C1142: x44+x50-y44_50 <=1 
C1143: x44+x51 <=1 
C1144: x44+x53 <=1 
C1145: x44+x56-y44_56 <=1 
C1146: x44+x57-y44_57 <=1 
C1147: x44+x58 <=1 
C1148: x44+x59-y44_59 <=1 
C1149: x44+x61 <=1 
C1150: x44+x62-y44_62 <=1 
C1151: x45+x46-y45_46 <=1 
C1152: x45+x47 <=1 
C1153: x45+x49-y45_49 <=1 
C1154: x45+x52 <=1 
C1155: x45+x53 <=1 
C1156: x45+x54-y45_54 <=1 
C1157: x45+x56 <=1 
C1158: x45+x57-y45_57 <=1 
C1159: x45+x58 <=1 
C1160: x45+x62 <=1 
C1161: x46+x47 <=1 
C1162: x46+x48 <=1 
C1163: x46+x49 <=1 
C1164: x46+x50 <=1 
C1165: x46+x51 <=1 
C1166: x46+x52-y46_52 <=1 
C1167: x46+x53 <=1 
C1168: x46+x54-y46_54 <=1 
C1169: x46+x58-y46_58 <=1 
C1170: x46+x61-y46_61 <=1 
C1171: x46+x63 <=1 
C1172: x46+x64 <=1 
C1173: x47+x48-y47_48 <=1 
C1174: x47+x49-y47_49 <=1 
C1175: x47+x50-y47_50 <=1 
C1176: x47+x52-y47_52 <=1 
C1177: x47+x53-y47_53 <=1 
C1178: x47+x54-y47_54 <=1 
C1179: x47+x55-y47_55 <=1 
C1180: x47+x57 <=1 
C1181: x47+x58 <=1 
C1182: x47+x59-y47_59 <=1 
C1183: x47+x60 <=1 
C1184: x47+x63 <=1 
C1185: x48+x49-y48_49 <=1 
C1186: x48+x50-y48_50 <=1 
C1187: x48+x51 <=1 
C1188: x48+x52-y48_52 <=1 
C1189: x48+x53 <=1 
C1190: x48+x54-y48_54 <=1 
C1191: x48+x56-y48_56 <=1 
C1192: x48+x59 <=1 
C1193: x48+x60-y48_60 <=1 
C1194: x48+x61-y48_61 <=1 
C1195: x48+x62-y48_62 <=1 
C1196: x48+x64 <=1 
C1197: x49+x51-y49_51 <=1 
C1198: x49+x52-y49_52 <=1 
C1199: x49+x53 <=1 
C1200: x49+x55-y49_55 <=1 
C1201: x49+x57-y49_57 <=1 
C1202: x49+x58 <=1 
C1203: x49+x59 <=1 
C1204: x49+x60 <=1 
C1205: x49+x61-y49_61 <=1 
C1206: x49+x62-y49_62 <=1 
C1207: x49+x63 <=1 
C1208: x49+x64 <=1 
C1209: x50+x51-y50_51 <=1 
C1210: x50+x53-y50_53 <=1 
C1211: x50+x54-y50_54 <=1 
C1212: x50+x55-y50_55 <=1 
C1213: x50+x56-y50_56 <=1 
C1214: x50+x57-y50_57 <=1 
C1215: x50+x58-y50_58 <=1 
C1216: x50+x59 <=1 
C1217: x50+x61-y50_61 <=1 
C1218: x50+x62 <=1 
C1219: x50+x63 <=1 
C1220: x50+x64-y50_64 <=1 
C1221: x51+x52 <=1 
C1222: x51+x55 <=1 
C1223: x51+x56 <=1 
C1224: x51+x57-y51_57 <=1 
C1225: x51+x59 <=1 
C1226: x51+x60 <=1 
C1227: x51+x62 <=1 
C1228: x51+x64-y51_64 <=1 
C1229: x52+x53-y52_53 <=1 
C1230: x52+x54-y52_54 <=1 
C1231: x52+x55 <=1 
C1232: x52+x56-y52_56 <=1 
C1233: x52+x57 <=1 
C1234: x52+x59-y52_59 <=1 
C1235: x52+x60-y52_60 <=1 
C1236: x52+x61-y52_61 <=1 
C1237: x52+x62-y52_62 <=1 
C1238: x52+x63 <=1 
C1239: x52+x64-y52_64 <=1 
C1240: x53+x54-y53_54 <=1 
C1241: x53+x55-y53_55 <=1 
C1242: x53+x56-y53_56 <=1 
C1243: x53+x57-y53_57 <=1 
C1244: x53+x61-y53_61 <=1 
C1245: x54+x55-y54_55 <=1 
C1246: x54+x57 <=1 
C1247: x54+x58 <=1 
C1248: x54+x60-y54_60 <=1 
C1249: x54+x63 <=1 
C1250: x54+x64 <=1 
C1251: x55+x57 <=1 
C1252: x55+x58-y55_58 <=1 
C1253: x55+x59 <=1 
C1254: x55+x61-y55_61 <=1 
C1255: x55+x62 <=1 
C1256: x56+x57-y56_57 <=1 
C1257: x56+x58 <=1 
C1258: x56+x59-y56_59 <=1 
C1259: x56+x62 <=1 
C1260: x56+x64 <=1 
C1261: x57+x58-y57_58 <=1 
C1262: x57+x61 <=1 
C1263: x57+x62 <=1 
C1264: x57+x63 <=1 
C1265: x58+x59 <=1 
C1266: x58+x60 <=1 
C1267: x58+x61-y58_61 <=1 
C1268: x58+x63-y58_63 <=1 
C1269: x58+x64 <=1 
C1270: x59+x60-y59_60 <=1 
C1271: x59+x62-y59_62 <=1 
C1272: x60+x61-y60_61 <=1 
C1273: x60+x62 <=1 
C1274: x60+x63-y60_63 <=1 
C1275: x60+x64-y60_64 <=1 
C1276: x61+x63 <=1 
C1277: x62+x64-y62_64 <=1 

binary
x0
x1
x2
x3
x4
x5
x6
x7
x8
x9
x10
x11
x12
x13
x14
x15
x16
x17
x18
x19
x20
x21
x22
x23
x24
x25
x26
x27
x28
x29
x30
x31
x32
x33
x34
x35
x36
x37
x38
x39
x40
x41
x42
x43
x44
x45
x46
x47
x48
x49
x50
x51
x52
x53
x54
x55
x56
x57
x58
x59
x60
x61
x62
x63
x64
