problem_generation/data/GISP/train/er_n=65_m=1277_p=0.60_SET2_setparam=100.00_alpha=0.50_819.sol
objective value:                                 1268
x6                                                  1 	(obj:100)
x7                                                  1 	(obj:100)
x19                                                 1 	(obj:100)
x22                                                 1 	(obj:100)
x23                                                 1 	(obj:100)
x26                                                 1 	(obj:100)
x30                                                 1 	(obj:100)
x33                                                 1 	(obj:100)
x39                                                 1 	(obj:100)
x43                                                 1 	(obj:100)
x50                                                 1 	(obj:100)
x54                                                 1 	(obj:100)
x55                                                 1 	(obj:100)
y26_30                                              1 	(obj:-1)
y43_55                                              1 	(obj:-1)
y43_50                                              1 	(obj:-1)
y6_33                                               1 	(obj:-1)
y54_55                                              1 	(obj:-1)
y6_19                                               1 	(obj:-1)
y6_23                                               1 	(obj:-1)
y19_50                                              1 	(obj:-1)
y30_50                                              1 	(obj:-1)
y19_54                                              1 	(obj:-1)
y22_55                                              1 	(obj:-1)
y26_43                                              1 	(obj:-1)
y7_39                                               1 	(obj:-1)
y7_43                                               1 	(obj:-1)
y22_54                                              1 	(obj:-1)
y33_50                                              1 	(obj:-1)
y22_26                                              1 	(obj:-1)
y6_50                                               1 	(obj:-1)
y22_39                                              1 	(obj:-1)
y6_54                                               1 	(obj:-1)
y39_50                                              1 	(obj:-1)
y50_55                                              1 	(obj:-1)
y6_39                                               1 	(obj:-1)
y23_50                                              1 	(obj:-1)
y50_54                                              1 	(obj:-1)
y26_55                                              1 	(obj:-1)
y19_43                                              1 	(obj:-1)
y7_55                                               1 	(obj:-1)
y19_33                                              1 	(obj:-1)
y23_30                                              1 	(obj:-1)
y19_23                                              1 	(obj:-1)
y33_43                                              1 	(obj:-1)
